g3 1 1 0	# problem mgw_20
 20 0 1 0 0	# vars, constraints, objectives, ranges, eqns
 0 1	# nonlinear constraints, objectives
 0 0	# network constraints: nonlinear, linear
 0 20 0	# nonlinear vars in constraints, objectives, both
 0 0 0 1	# linear network variables; functions; arith, flags
 0 0 0 0 0	# discrete variables: binary, integer, nonlinear (b,c,o)
 0 20	# nonzeros in Jacobian, gradients
 0 0	# max name lengths: constraints, variables
 0 0 0 0 0	# common exprs: b,c,o,c1,o1
O0 0
o54
41
o2
n0.00025
o5
v0
n2
o2
n0.00025
o5
v1
n2
o2
n0.00025
o5
v2
n2
o2
n0.00025
o5
v3
n2
o2
n0.00025
o5
v4
n2
o2
n0.00025
o5
v5
n2
o2
n0.00025
o5
v6
n2
o2
n0.00025
o5
v7
n2
o2
n0.00025
o5
v8
n2
o2
n0.00025
o5
v9
n2
o2
n0.00025
o5
v10
n2
o2
n0.00025
o5
v11
n2
o2
n0.00025
o5
v12
n2
o2
n0.00025
o5
v13
n2
o2
n0.00025
o5
v14
n2
o2
n0.00025
o5
v15
n2
o2
n0.00025
o5
v16
n2
o2
n0.00025
o5
v17
n2
o2
n0.00025
o5
v18
n2
o2
n0.00025
o5
v19
n2
o16
o43
o0
n2
o46
o54
20
v0
v1
v2
v3
v4
v5
v6
v7
v8
v9
v10
v11
v12
v13
v14
v15
v16
v17
v18
v19
o16
o43
o0
n2
o46
o54
20
v0
v1
v2
v3
v4
v5
v6
v7
v8
v9
v10
v11
v12
v13
v14
v15
v16
v17
v18
v19
o16
o43
o0
n2
o46
o54
20
v0
v1
v2
v3
v4
v5
v6
v7
v8
v9
v10
v11
v12
v13
v14
v15
v16
v17
v18
v19
o16
o43
o0
n2
o46
o54
20
v0
v1
v2
v3
v4
v5
v6
v7
v8
v9
v10
v11
v12
v13
v14
v15
v16
v17
v18
v19
o16
o43
o0
n2
o46
o54
20
v0
v1
v2
v3
v4
v5
v6
v7
v8
v9
v10
v11
v12
v13
v14
v15
v16
v17
v18
v19
o16
o43
o0
n2
o46
o54
20
v0
v1
v2
v3
v4
v5
v6
v7
v8
v9
v10
v11
v12
v13
v14
v15
v16
v17
v18
v19
o16
o43
o0
n2
o46
o54
20
v0
v1
v2
v3
v4
v5
v6
v7
v8
v9
v10
v11
v12
v13
v14
v15
v16
v17
v18
v19
o16
o43
o0
n2
o46
o54
20
v0
v1
v2
v3
v4
v5
v6
v7
v8
v9
v10
v11
v12
v13
v14
v15
v16
v17
v18
v19
o16
o43
o0
n2
o46
o54
20
v0
v1
v2
v3
v4
v5
v6
v7
v8
v9
v10
v11
v12
v13
v14
v15
v16
v17
v18
v19
o16
o43
o0
n2
o46
o54
20
v0
v1
v2
v3
v4
v5
v6
v7
v8
v9
v10
v11
v12
v13
v14
v15
v16
v17
v18
v19
o16
o43
o0
n2
o46
o54
20
o2
n0.7071067811865475
v0
o2
n0.7071067811865475
v1
o2
n0.7071067811865475
v2
o2
n0.7071067811865475
v3
o2
n0.7071067811865475
v4
o2
n0.7071067811865475
v5
o2
n0.7071067811865475
v6
o2
n0.7071067811865475
v7
o2
n0.7071067811865475
v8
o2
n0.7071067811865475
v9
o2
n-0.7071067811865475
v10
o2
n-0.7071067811865475
v11
o2
n-0.7071067811865475
v12
o2
n-0.7071067811865475
v13
o2
n-0.7071067811865475
v14
o2
n-0.7071067811865475
v15
o2
n-0.7071067811865475
v16
o2
n-0.7071067811865475
v17
o2
n-0.7071067811865475
v18
o2
n-0.7071067811865475
v19
o16
o43
o0
n2
o46
o54
20
o2
n0.7071067811865475
v0
o2
n0.7071067811865475
v1
o2
n0.7071067811865475
v2
o2
n0.7071067811865475
v3
o2
n0.7071067811865475
v4
o2
n0.7071067811865475
v5
o2
n0.7071067811865475
v6
o2
n0.7071067811865475
v7
o2
n0.7071067811865475
v8
o2
n0.7071067811865475
v9
o2
n-0.7071067811865475
v10
o2
n-0.7071067811865475
v11
o2
n-0.7071067811865475
v12
o2
n-0.7071067811865475
v13
o2
n-0.7071067811865475
v14
o2
n-0.7071067811865475
v15
o2
n-0.7071067811865475
v16
o2
n-0.7071067811865475
v17
o2
n-0.7071067811865475
v18
o2
n-0.7071067811865475
v19
o16
o43
o0
n2
o46
o54
20
o2
n0.7071067811865475
v0
o2
n0.7071067811865475
v1
o2
n0.7071067811865475
v2
o2
n0.7071067811865475
v3
o2
n0.7071067811865475
v4
o2
n0.7071067811865475
v5
o2
n0.7071067811865475
v6
o2
n0.7071067811865475
v7
o2
n0.7071067811865475
v8
o2
n0.7071067811865475
v9
o2
n-0.7071067811865475
v10
o2
n-0.7071067811865475
v11
o2
n-0.7071067811865475
v12
o2
n-0.7071067811865475
v13
o2
n-0.7071067811865475
v14
o2
n-0.7071067811865475
v15
o2
n-0.7071067811865475
v16
o2
n-0.7071067811865475
v17
o2
n-0.7071067811865475
v18
o2
n-0.7071067811865475
v19
o16
o43
o0
n2
o46
o54
20
o2
n0.7071067811865475
v0
o2
n0.7071067811865475
v1
o2
n0.7071067811865475
v2
o2
n0.7071067811865475
v3
o2
n0.7071067811865475
v4
o2
n0.7071067811865475
v5
o2
n0.7071067811865475
v6
o2
n0.7071067811865475
v7
o2
n0.7071067811865475
v8
o2
n0.7071067811865475
v9
o2
n-0.7071067811865475
v10
o2
n-0.7071067811865475
v11
o2
n-0.7071067811865475
v12
o2
n-0.7071067811865475
v13
o2
n-0.7071067811865475
v14
o2
n-0.7071067811865475
v15
o2
n-0.7071067811865475
v16
o2
n-0.7071067811865475
v17
o2
n-0.7071067811865475
v18
o2
n-0.7071067811865475
v19
o16
o43
o0
n2
o46
o54
20
o2
n0.7071067811865475
v0
o2
n0.7071067811865475
v1
o2
n0.7071067811865475
v2
o2
n0.7071067811865475
v3
o2
n0.7071067811865475
v4
o2
n0.7071067811865475
v5
o2
n0.7071067811865475
v6
o2
n0.7071067811865475
v7
o2
n0.7071067811865475
v8
o2
n0.7071067811865475
v9
o2
n-0.7071067811865475
v10
o2
n-0.7071067811865475
v11
o2
n-0.7071067811865475
v12
o2
n-0.7071067811865475
v13
o2
n-0.7071067811865475
v14
o2
n-0.7071067811865475
v15
o2
n-0.7071067811865475
v16
o2
n-0.7071067811865475
v17
o2
n-0.7071067811865475
v18
o2
n-0.7071067811865475
v19
o16
o43
o0
n2
o46
o54
20
o2
n0.7071067811865475
v0
o2
n0.7071067811865475
v1
o2
n0.7071067811865475
v2
o2
n0.7071067811865475
v3
o2
n0.7071067811865475
v4
o2
n0.7071067811865475
v5
o2
n0.7071067811865475
v6
o2
n0.7071067811865475
v7
o2
n0.7071067811865475
v8
o2
n0.7071067811865475
v9
o2
n-0.7071067811865475
v10
o2
n-0.7071067811865475
v11
o2
n-0.7071067811865475
v12
o2
n-0.7071067811865475
v13
o2
n-0.7071067811865475
v14
o2
n-0.7071067811865475
v15
o2
n-0.7071067811865475
v16
o2
n-0.7071067811865475
v17
o2
n-0.7071067811865475
v18
o2
n-0.7071067811865475
v19
o16
o43
o0
n2
o46
o54
20
o2
n0.7071067811865475
v0
o2
n0.7071067811865475
v1
o2
n0.7071067811865475
v2
o2
n0.7071067811865475
v3
o2
n0.7071067811865475
v4
o2
n0.7071067811865475
v5
o2
n0.7071067811865475
v6
o2
n0.7071067811865475
v7
o2
n0.7071067811865475
v8
o2
n0.7071067811865475
v9
o2
n-0.7071067811865475
v10
o2
n-0.7071067811865475
v11
o2
n-0.7071067811865475
v12
o2
n-0.7071067811865475
v13
o2
n-0.7071067811865475
v14
o2
n-0.7071067811865475
v15
o2
n-0.7071067811865475
v16
o2
n-0.7071067811865475
v17
o2
n-0.7071067811865475
v18
o2
n-0.7071067811865475
v19
o16
o43
o0
n2
o46
o54
20
o2
n0.7071067811865475
v0
o2
n0.7071067811865475
v1
o2
n0.7071067811865475
v2
o2
n0.7071067811865475
v3
o2
n0.7071067811865475
v4
o2
n0.7071067811865475
v5
o2
n0.7071067811865475
v6
o2
n0.7071067811865475
v7
o2
n0.7071067811865475
v8
o2
n0.7071067811865475
v9
o2
n-0.7071067811865475
v10
o2
n-0.7071067811865475
v11
o2
n-0.7071067811865475
v12
o2
n-0.7071067811865475
v13
o2
n-0.7071067811865475
v14
o2
n-0.7071067811865475
v15
o2
n-0.7071067811865475
v16
o2
n-0.7071067811865475
v17
o2
n-0.7071067811865475
v18
o2
n-0.7071067811865475
v19
o16
o43
o0
n2
o46
o54
20
o2
n0.7071067811865475
v0
o2
n0.7071067811865475
v1
o2
n0.7071067811865475
v2
o2
n0.7071067811865475
v3
o2
n0.7071067811865475
v4
o2
n0.7071067811865475
v5
o2
n0.7071067811865475
v6
o2
n0.7071067811865475
v7
o2
n0.7071067811865475
v8
o2
n0.7071067811865475
v9
o2
n-0.7071067811865475
v10
o2
n-0.7071067811865475
v11
o2
n-0.7071067811865475
v12
o2
n-0.7071067811865475
v13
o2
n-0.7071067811865475
v14
o2
n-0.7071067811865475
v15
o2
n-0.7071067811865475
v16
o2
n-0.7071067811865475
v17
o2
n-0.7071067811865475
v18
o2
n-0.7071067811865475
v19
o16
o43
o0
n2
o46
o54
20
o2
n0.7071067811865475
v0
o2
n0.7071067811865475
v1
o2
n0.7071067811865475
v2
o2
n0.7071067811865475
v3
o2
n0.7071067811865475
v4
o2
n0.7071067811865475
v5
o2
n0.7071067811865475
v6
o2
n0.7071067811865475
v7
o2
n0.7071067811865475
v8
o2
n0.7071067811865475
v9
o2
n-0.7071067811865475
v10
o2
n-0.7071067811865475
v11
o2
n-0.7071067811865475
v12
o2
n-0.7071067811865475
v13
o2
n-0.7071067811865475
v14
o2
n-0.7071067811865475
v15
o2
n-0.7071067811865475
v16
o2
n-0.7071067811865475
v17
o2
n-0.7071067811865475
v18
o2
n-0.7071067811865475
v19
n21.972245773362193
b
0 -10 10
0 -10 10
0 -10 10
0 -10 10
0 -10 10
0 -10 10
0 -10 10
0 -10 10
0 -10 10
0 -10 10
0 -10 10
0 -10 10
0 -10 10
0 -10 10
0 -10 10
0 -10 10
0 -10 10
0 -10 10
0 -10 10
0 -10 10
k19
0
0
0
0
0
0
0
0
0
0
0
0
0
0
0
0
0
0
0
G0 20
0 0
1 0
2 0
3 0
4 0
5 0
6 0
7 0
8 0
9 0
10 0
11 0
12 0
13 0
14 0
15 0
16 0
17 0
18 0
19 0
